10 0 2 1 8 4 7 3 5 9 6 0 220
999999999 65 24 97 62 82 1 82 98 90 
65 999999999 9 53 77 91 57 83 48 72 
24 9 999999999 93 23 69 2 48 70 54 
97 53 93 999999999 51 30 74 4 71 54 
62 77 23 51 999999999 97 30 53 33 42 
82 91 69 30 97 999999999 8 63 85 5 
1 57 2 74 30 8 999999999 33 80 13 
82 83 48 4 53 63 33 999999999 82 54 
98 48 70 71 33 85 80 82 999999999 51 
90 72 54 54 42 5 13 54 51 999999999 
